SumColouring/JavaBacktracker/RandomInstances/24_0.55_2.col
c File: instances/24_0.55_2.col
c
c Description: Random graph of size 24 vertices and P(0.5499999999999999) of edges between any two vertices.
p col 24 276
e 1 2
e 1 3
e 1 4
e 1 5
e 1 6
e 1 7
e 1 8
e 1 9
e 1 12
e 1 14
e 1 15
e 1 18
e 1 21
e 1 22
e 1 23
e 2 4
e 2 5
e 2 7
e 2 8
e 2 10
e 2 13
e 2 15
e 2 18
e 2 19
e 2 23
e 3 4
e 3 6
e 3 8
e 3 9
e 3 11
e 3 18
e 3 19
e 3 21
e 3 22
e 3 23
e 3 24
e 4 6
e 4 11
e 4 13
e 4 16
e 4 17
e 4 18
e 4 19
e 4 21
e 4 22
e 5 6
e 5 7
e 5 9
e 5 11
e 5 13
e 5 15
e 5 16
e 5 17
e 5 18
e 5 19
e 5 21
e 5 22
e 5 23
e 6 7
e 6 12
e 6 13
e 6 18
e 6 20
e 6 23
e 6 24
e 7 11
e 7 12
e 7 14
e 7 15
e 7 20
e 7 21
e 7 22
e 8 9
e 8 10
e 8 15
e 8 16
e 8 17
e 8 18
e 8 20
e 8 23
e 8 24
e 9 10
e 9 11
e 9 14
e 9 16
e 9 18
e 9 19
e 9 21
e 9 22
e 9 24
e 10 12
e 10 13
e 10 14
e 10 17
e 10 20
e 10 22
e 11 14
e 11 15
e 11 16
e 11 17
e 11 19
e 11 20
e 11 21
e 11 22
e 11 23
e 11 24
e 12 17
e 12 19
e 12 20
e 12 21
e 12 23
e 12 24
e 13 14
e 13 16
e 13 17
e 13 18
e 13 19
e 13 20
e 13 21
e 13 22
e 13 24
e 14 15
e 14 16
e 14 17
e 14 18
e 14 20
e 14 23
e 15 18
e 15 20
e 15 21
e 15 22
e 15 23
e 16 18
e 16 19
e 16 22
e 16 23
e 17 23
e 17 24
e 18 20
e 18 22
e 19 21
e 19 24
e 20 21
e 20 22
e 20 24
e 21 23
e 21 24
e 22 23
e 22 24